p cnf 502 1328
c weights 1.0 1.0 2.718281828459045 0.36787944117144233 2.718281828459045 0.36787944117144233 2.718281828459045 0.36787944117144233 2.718281828459045 0.36787944117144233 2.718281828459045 0.36787944117144233 1.0 1.0 2.718281828459045 0.36787944117144233 2.718281828459045 0.36787944117144233 2.718281828459045 0.36787944117144233 2.718281828459045 0.36787944117144233 1.0 1.0 2.718281828459045 0.36787944117144233 2.718281828459045 0.36787944117144233 2.718281828459045 0.36787944117144233 1.0 1.0 2.718281828459045 0.36787944117144233 2.718281828459045 0.36787944117144233 2.718281828459045 0.36787944117144233 2.718281828459045 0.36787944117144233 2.718281828459045 0.36787944117144233 2.718281828459045 0.36787944117144233 2.718281828459045 0.36787944117144233 1.0 1.0 2.718281828459045 0.36787944117144233 2.718281828459045 0.36787944117144233 2.718281828459045 0.36787944117144233 2.718281828459045 0.36787944117144233 2.718281828459045 0.36787944117144233 2.718281828459045 0.36787944117144233 1.0 1.0 2.718281828459045 0.36787944117144233 2.718281828459045 0.36787944117144233 2.718281828459045 0.36787944117144233 1.0 1.0 2.718281828459045 0.36787944117144233 2.718281828459045 0.36787944117144233 1.0 1.0 2.718281828459045 0.36787944117144233 1.0 1.0 2.718281828459045 0.36787944117144233 2.718281828459045 0.36787944117144233 2.718281828459045 0.36787944117144233 2.718281828459045 0.36787944117144233 2.718281828459045 0.36787944117144233 1.0 1.0 2.718281828459045 0.36787944117144233 2.718281828459045 0.36787944117144233 2.718281828459045 0.36787944117144233 1.0 1.0 2.718281828459045 0.36787944117144233 2.718281828459045 0.36787944117144233 2.718281828459045 0.36787944117144233 2.718281828459045 0.36787944117144233 1.0 1.0 2.718281828459045 0.36787944117144233 2.718281828459045 0.36787944117144233 2.718281828459045 0.36787944117144233 2.718281828459045 0.36787944117144233 1.0 1.0 2.718281828459045 0.36787944117144233 2.718281828459045 0.36787944117144233 2.718281828459045 0.36787944117144233 2.718281828459045 0.36787944117144233 1.0 1.0 2.718281828459045 0.36787944117144233 2.718281828459045 0.36787944117144233 2.718281828459045 0.36787944117144233 1.0 1.0 2.718281828459045 0.36787944117144233 2.718281828459045 0.36787944117144233 1.0 1.0 2.718281828459045 0.36787944117144233 1.0 1.0 2.718281828459045 0.36787944117144233 2.718281828459045 0.36787944117144233 2.718281828459045 0.36787944117144233 2.718281828459045 0.36787944117144233 2.718281828459045 0.36787944117144233 2.718281828459045 0.36787944117144233 2.718281828459045 0.36787944117144233 2.718281828459045 0.36787944117144233 2.718281828459045 0.36787944117144233 1.0 1.0 2.718281828459045 0.36787944117144233 2.718281828459045 0.36787944117144233 2.718281828459045 0.36787944117144233 2.718281828459045 0.36787944117144233 2.718281828459045 0.36787944117144233 1.0 1.0 2.718281828459045 0.36787944117144233 2.718281828459045 0.36787944117144233 2.718281828459045 0.36787944117144233 1.0 1.0 2.718281828459045 0.36787944117144233 2.718281828459045 0.36787944117144233 2.718281828459045 0.36787944117144233 2.718281828459045 0.36787944117144233 1.0 1.0 2.718281828459045 0.36787944117144233 2.718281828459045 0.36787944117144233 2.718281828459045 0.36787944117144233 2.718281828459045 0.36787944117144233 1.0 1.0 2.718281828459045 0.36787944117144233 2.718281828459045 0.36787944117144233 2.718281828459045 0.36787944117144233 2.718281828459045 0.36787944117144233 1.0 1.0 2.718281828459045 0.36787944117144233 2.718281828459045 0.36787944117144233 1.0 1.0 2.718281828459045 0.36787944117144233 2.718281828459045 0.36787944117144233 2.718281828459045 0.36787944117144233 1.0 1.0 2.718281828459045 0.36787944117144233 2.718281828459045 0.36787944117144233 2.718281828459045 0.36787944117144233 1.0 1.0 2.718281828459045 0.36787944117144233 2.718281828459045 0.36787944117144233 2.718281828459045 0.36787944117144233 2.718281828459045 0.36787944117144233 1.0 1.0 2.718281828459045 0.36787944117144233 2.718281828459045 0.36787944117144233 2.718281828459045 0.36787944117144233 2.718281828459045 0.36787944117144233 2.718281828459045 0.36787944117144233 2.718281828459045 0.36787944117144233 2.718281828459045 0.36787944117144233 1.0 1.0 2.718281828459045 0.36787944117144233 1.0 1.0 2.718281828459045 0.36787944117144233 1.0 1.0 2.718281828459045 0.36787944117144233 1.0 1.0 2.718281828459045 0.36787944117144233 2.718281828459045 0.36787944117144233 2.718281828459045 0.36787944117144233 1.0 1.0 2.718281828459045 0.36787944117144233 2.718281828459045 0.36787944117144233 2.718281828459045 0.36787944117144233 2.718281828459045 0.36787944117144233 1.0 1.0 2.718281828459045 0.36787944117144233 2.718281828459045 0.36787944117144233 2.718281828459045 0.36787944117144233 1.0 1.0 2.718281828459045 0.36787944117144233 2.718281828459045 0.36787944117144233 2.718281828459045 0.36787944117144233 2.718281828459045 0.36787944117144233 2.718281828459045 0.36787944117144233 2.718281828459045 0.36787944117144233 1.0 1.0 2.718281828459045 0.36787944117144233 2.718281828459045 0.36787944117144233 1.0 1.0 2.718281828459045 0.36787944117144233 1.0 1.0 2.718281828459045 0.36787944117144233 1.0 1.0 2.718281828459045 0.36787944117144233 2.718281828459045 0.36787944117144233 2.718281828459045 0.36787944117144233 2.718281828459045 0.36787944117144233 1.0 1.0 2.718281828459045 0.36787944117144233 2.718281828459045 0.36787944117144233 2.718281828459045 0.36787944117144233 1.0 1.0 2.718281828459045 0.36787944117144233 2.718281828459045 0.36787944117144233 2.718281828459045 0.36787944117144233 2.718281828459045 0.36787944117144233 1.0 1.0 2.718281828459045 0.36787944117144233 2.718281828459045 0.36787944117144233 2.718281828459045 0.36787944117144233 1.0 1.0 2.718281828459045 0.36787944117144233 2.718281828459045 0.36787944117144233 2.718281828459045 0.36787944117144233 2.718281828459045 0.36787944117144233 1.0 1.0 2.718281828459045 0.36787944117144233 2.718281828459045 0.36787944117144233 2.718281828459045 0.36787944117144233 2.718281828459045 0.36787944117144233 2.718281828459045 0.36787944117144233 2.718281828459045 0.36787944117144233 1.0 1.0 2.718281828459045 0.36787944117144233 2.718281828459045 0.36787944117144233 2.718281828459045 0.36787944117144233 2.718281828459045 0.36787944117144233 2.718281828459045 0.36787944117144233 1.0 1.0 2.718281828459045 0.36787944117144233 2.718281828459045 0.36787944117144233 2.718281828459045 0.36787944117144233 2.718281828459045 0.36787944117144233 1.0 1.0 2.718281828459045 0.36787944117144233 2.718281828459045 0.36787944117144233 1.0 1.0 2.718281828459045 0.36787944117144233 2.718281828459045 0.36787944117144233 2.718281828459045 0.36787944117144233 1.0 1.0 2.718281828459045 0.36787944117144233 2.718281828459045 0.36787944117144233 1.0 1.0 2.718281828459045 0.36787944117144233 2.718281828459045 0.36787944117144233 2.718281828459045 0.36787944117144233 1.0 1.0 2.718281828459045 0.36787944117144233 2.718281828459045 0.36787944117144233 2.718281828459045 0.36787944117144233 2.718281828459045 0.36787944117144233 2.718281828459045 0.36787944117144233 1.0 1.0 1.0 1.0 2.718281828459045 0.36787944117144233 2.718281828459045 0.36787944117144233 1.0 1.0 2.718281828459045 0.36787944117144233 2.718281828459045 0.36787944117144233 2.718281828459045 0.36787944117144233 2.718281828459045 0.36787944117144233 2.718281828459045 0.36787944117144233 1.0 1.0 2.718281828459045 0.36787944117144233 2.718281828459045 0.36787944117144233 2.718281828459045 0.36787944117144233 2.718281828459045 0.36787944117144233 2.718281828459045 0.36787944117144233 1.0 1.0 2.718281828459045 0.36787944117144233 1.0 1.0 2.718281828459045 0.36787944117144233 2.718281828459045 0.36787944117144233 2.718281828459045 0.36787944117144233 2.718281828459045 0.36787944117144233 1.0 1.0 2.718281828459045 0.36787944117144233 2.718281828459045 0.36787944117144233 2.718281828459045 0.36787944117144233 2.718281828459045 0.36787944117144233 2.718281828459045 0.36787944117144233 1.0 1.0 2.718281828459045 0.36787944117144233 1.0 1.0 2.718281828459045 0.36787944117144233 1.0 1.0 2.718281828459045 0.36787944117144233 2.718281828459045 0.36787944117144233 1.0 1.0 1.0 1.0 2.718281828459045 0.36787944117144233 2.718281828459045 0.36787944117144233 1.0 1.0 2.718281828459045 0.36787944117144233 2.718281828459045 0.36787944117144233 1.0 1.0 2.718281828459045 0.36787944117144233 2.718281828459045 0.36787944117144233 2.718281828459045 0.36787944117144233 2.718281828459045 0.36787944117144233 1.0 1.0 2.718281828459045 0.36787944117144233 2.718281828459045 0.36787944117144233 2.718281828459045 0.36787944117144233 1.0 1.0 2.718281828459045 0.36787944117144233 2.718281828459045 0.36787944117144233 2.718281828459045 0.36787944117144233 2.718281828459045 0.36787944117144233 1.0 1.0 2.718281828459045 0.36787944117144233 2.718281828459045 0.36787944117144233 1.0 1.0 1.0 1.0 1.0 1.0 2.718281828459045 0.36787944117144233 1.0 1.0 2.718281828459045 0.36787944117144233 2.718281828459045 0.36787944117144233 1.0 1.0 2.718281828459045 0.36787944117144233 1.0 1.0 2.718281828459045 0.36787944117144233 2.718281828459045 0.36787944117144233 2.718281828459045 0.36787944117144233 1.0 1.0 1.0 1.0 2.718281828459045 0.36787944117144233 2.718281828459045 0.36787944117144233 2.718281828459045 0.36787944117144233 1.0 1.0 2.718281828459045 0.36787944117144233 2.718281828459045 0.36787944117144233 2.718281828459045 0.36787944117144233 1.0 1.0 2.718281828459045 0.36787944117144233 1.0 1.0 2.718281828459045 0.36787944117144233 1.0 1.0 1.0 1.0 2.718281828459045 0.36787944117144233 2.718281828459045 0.36787944117144233 1.0 1.0 2.718281828459045 0.36787944117144233 2.718281828459045 0.36787944117144233 2.718281828459045 0.36787944117144233 1.0 1.0 2.718281828459045 0.36787944117144233 1.0 1.0 2.718281828459045 0.36787944117144233 2.718281828459045 0.36787944117144233 1.0 1.0 2.718281828459045 0.36787944117144233 2.718281828459045 0.36787944117144233 1.0 1.0 2.718281828459045 0.36787944117144233 2.718281828459045 0.36787944117144233 2.718281828459045 0.36787944117144233 1.0 1.0 2.718281828459045 0.36787944117144233 2.718281828459045 0.36787944117144233 1.0 1.0 1.0 1.0 2.718281828459045 0.36787944117144233 2.718281828459045 0.36787944117144233 2.718281828459045 0.36787944117144233 2.718281828459045 0.36787944117144233 1.0 1.0 2.718281828459045 0.36787944117144233 2.718281828459045 0.36787944117144233 2.718281828459045 0.36787944117144233 2.718281828459045 0.36787944117144233 1.0 1.0 1.0 1.0 1.0 1.0 2.718281828459045 0.36787944117144233 1.0 1.0 2.718281828459045 0.36787944117144233 1.0 1.0 2.718281828459045 0.36787944117144233 2.718281828459045 0.36787944117144233 1.0 1.0 2.718281828459045 0.36787944117144233 2.718281828459045 0.36787944117144233 2.718281828459045 0.36787944117144233 1.0 1.0 2.718281828459045 0.36787944117144233 2.718281828459045 0.36787944117144233 1.0 1.0 1.0 1.0 1.0 1.0 2.718281828459045 0.36787944117144233 1.0 1.0 2.718281828459045 0.36787944117144233 2.718281828459045 0.36787944117144233 2.718281828459045 0.36787944117144233 2.718281828459045 0.36787944117144233 1.0 1.0 2.718281828459045 0.36787944117144233 1.0 1.0 1.0 1.0 2.718281828459045 0.36787944117144233 2.718281828459045 0.36787944117144233 1.0 1.0 2.718281828459045 0.36787944117144233 2.718281828459045 0.36787944117144233 1.0 1.0 2.718281828459045 0.36787944117144233 1.0 1.0 2.718281828459045 0.36787944117144233 2.718281828459045 0.36787944117144233 2.718281828459045 0.36787944117144233 2.718281828459045 0.36787944117144233 1.0 1.0 2.718281828459045 0.36787944117144233 2.718281828459045 0.36787944117144233 2.718281828459045 0.36787944117144233 1.0 1.0 2.718281828459045 0.36787944117144233 2.718281828459045 0.36787944117144233 1.0 1.0 2.718281828459045 0.36787944117144233 2.718281828459045 0.36787944117144233 2.718281828459045 0.36787944117144233 1.0 1.0 2.718281828459045 0.36787944117144233 1.0 1.0 2.718281828459045 0.36787944117144233 1.0 1.0 2.718281828459045 0.36787944117144233 1.0 1.0 2.718281828459045 0.36787944117144233 1.0 1.0 2.718281828459045 0.36787944117144233 1.0 1.0 2.718281828459045 0.36787944117144233 2.718281828459045 0.36787944117144233 1.0 1.0 2.718281828459045 0.36787944117144233 2.718281828459045 0.36787944117144233 1.0 1.0 2.718281828459045 0.36787944117144233 2.718281828459045 0.36787944117144233 2.718281828459045 0.36787944117144233 1.0 1.0 1.0 1.0 1.0 1.0 2.718281828459045 0.36787944117144233 2.718281828459045 0.36787944117144233 2.718281828459045 0.36787944117144233 2.718281828459045 0.36787944117144233 1.0 1.0 2.718281828459045 0.36787944117144233 1.0 1.0 2.718281828459045 0.36787944117144233 1.0 1.0 2.718281828459045 0.36787944117144233 1.0 1.0 1.0 1.0 2.718281828459045 0.36787944117144233 2.718281828459045 0.36787944117144233 1.0 1.0 2.718281828459045 0.36787944117144233 1.0 1.0 2.718281828459045 0.36787944117144233 1.0 1.0 2.718281828459045 0.36787944117144233 1.0 1.0 2.718281828459045 0.36787944117144233 2.718281828459045 0.36787944117144233 1.0 1.0 1.0 1.0 2.718281828459045 0.36787944117144233 1.0 1.0 2.718281828459045 0.36787944117144233 1.0 1.0 2.718281828459045 0.36787944117144233 1.0 1.0 2.718281828459045 0.36787944117144233 2.718281828459045 0.36787944117144233 1.0 1.0 2.718281828459045 0.36787944117144233 1.0 1.0 1.0 1.0 1.0 1.0 2.718281828459045 0.36787944117144233 1.0 1.0 2.718281828459045 0.36787944117144233 1.0 1.0 1.0 1.0 1.0 1.0 1.0 1.0 1.0 1.0 2.718281828459045 0.36787944117144233 1.0 1.0 1.0 1.0 1.0 1.0 1.0 1.0 2.718281828459045 0.36787944117144233 2.718281828459045 0.36787944117144233 1.0 1.0 1.0 1.0 2.718281828459045 0.36787944117144233 1.0 1.0 1.0 1.0 2.718281828459045 0.36787944117144233 1.0 1.0 2.718281828459045 0.36787944117144233 1.0 1.0 1.0 1.0 1.0 1.0 2.718281828459045 0.36787944117144233 1.0 1.0 2.718281828459045 0.36787944117144233 1.0 1.0 2.718281828459045 0.36787944117144233 1.0 1.0 1.0 1.0 1.0 1.0 1.0 1.0 1.0 1.0 1.0 1.0 1.0 1.0 1.0 1.0 1.0 1.0 1.0 1.0 1.0 1.0 1.0 1.0
2 1 94 0
2 -1 -94 0
-2 1 -94 0
-2 -1 94 0
3 1 148 0
3 -1 -148 0
-3 1 -148 0
-3 -1 148 0
4 1 412 0
4 -1 -412 0
-4 1 -412 0
-4 -1 412 0
5 1 455 0
5 -1 -455 0
-5 1 -455 0
-5 -1 455 0
6 1 461 0
6 -1 -461 0
-6 1 -461 0
-6 -1 461 0
8 7 196 0
8 -7 -196 0
-8 7 -196 0
-8 -7 196 0
9 7 207 0
9 -7 -207 0
-9 7 -207 0
-9 -7 207 0
10 7 258 0
10 -7 -258 0
-10 7 -258 0
-10 -7 258 0
11 7 498 0
11 -7 -498 0
-11 7 -498 0
-11 -7 498 0
13 12 50 0
13 -12 -50 0
-13 12 -50 0
-13 -12 50 0
14 12 135 0
14 -12 -135 0
-14 12 -135 0
-14 -12 135 0
15 12 210 0
15 -12 -210 0
-15 12 -210 0
-15 -12 210 0
17 16 202 0
17 -16 -202 0
-17 16 -202 0
-17 -16 202 0
18 16 309 0
18 -16 -309 0
-18 16 -309 0
-18 -16 309 0
19 16 323 0
19 -16 -323 0
-19 16 -323 0
-19 -16 323 0
20 16 329 0
20 -16 -329 0
-20 16 -329 0
-20 -16 329 0
21 16 383 0
21 -16 -383 0
-21 16 -383 0
-21 -16 383 0
22 16 420 0
22 -16 -420 0
-22 16 -420 0
-22 -16 420 0
23 16 440 0
23 -16 -440 0
-23 16 -440 0
-23 -16 440 0
25 24 99 0
25 -24 -99 0
-25 24 -99 0
-25 -24 99 0
26 24 260 0
26 -24 -260 0
-26 24 -260 0
-26 -24 260 0
27 24 275 0
27 -24 -275 0
-27 24 -275 0
-27 -24 275 0
28 24 363 0
28 -24 -363 0
-28 24 -363 0
-28 -24 363 0
29 24 392 0
29 -24 -392 0
-29 24 -392 0
-29 -24 392 0
30 24 459 0
30 -24 -459 0
-30 24 -459 0
-30 -24 459 0
32 31 217 0
32 -31 -217 0
-32 31 -217 0
-32 -31 217 0
33 31 258 0
33 -31 -258 0
-33 31 -258 0
-33 -31 258 0
34 31 466 0
34 -31 -466 0
-34 31 -466 0
-34 -31 466 0
36 35 264 0
36 -35 -264 0
-36 35 -264 0
-36 -35 264 0
37 35 374 0
37 -35 -374 0
-37 35 -374 0
-37 -35 374 0
39 38 446 0
39 -38 -446 0
-39 38 -446 0
-39 -38 446 0
41 40 125 0
41 -40 -125 0
-41 40 -125 0
-41 -40 125 0
42 40 210 0
42 -40 -210 0
-42 40 -210 0
-42 -40 210 0
43 40 388 0
43 -40 -388 0
-43 40 -388 0
-43 -40 388 0
44 40 457 0
44 -40 -457 0
-44 40 -457 0
-44 -40 457 0
45 40 458 0
45 -40 -458 0
-45 40 -458 0
-45 -40 458 0
47 46 143 0
47 -46 -143 0
-47 46 -143 0
-47 -46 143 0
48 46 313 0
48 -46 -313 0
-48 46 -313 0
-48 -46 313 0
49 46 491 0
49 -46 -491 0
-49 46 -491 0
-49 -46 491 0
51 50 175 0
51 -50 -175 0
-51 50 -175 0
-51 -50 175 0
52 50 270 0
52 -50 -270 0
-52 50 -270 0
-52 -50 270 0
53 50 321 0
53 -50 -321 0
-53 50 -321 0
-53 -50 321 0
54 50 326 0
54 -50 -326 0
-54 50 -326 0
-54 -50 326 0
56 55 184 0
56 -55 -184 0
-56 55 -184 0
-56 -55 184 0
57 55 243 0
57 -55 -243 0
-57 55 -243 0
-57 -55 243 0
58 55 347 0
58 -55 -347 0
-58 55 -347 0
-58 -55 347 0
59 55 433 0
59 -55 -433 0
-59 55 -433 0
-59 -55 433 0
61 60 112 0
61 -60 -112 0
-61 60 -112 0
-61 -60 112 0
62 60 214 0
62 -60 -214 0
-62 60 -214 0
-62 -60 214 0
63 60 243 0
63 -60 -243 0
-63 60 -243 0
-63 -60 243 0
64 60 348 0
64 -60 -348 0
-64 60 -348 0
-64 -60 348 0
66 65 164 0
66 -65 -164 0
-66 65 -164 0
-66 -65 164 0
67 65 458 0
67 -65 -458 0
-67 65 -458 0
-67 -65 458 0
68 65 461 0
68 -65 -461 0
-68 65 -461 0
-68 -65 461 0
70 69 148 0
70 -69 -148 0
-70 69 -148 0
-70 -69 148 0
71 69 294 0
71 -69 -294 0
-71 69 -294 0
-71 -69 294 0
73 72 491 0
73 -72 -491 0
-73 72 -491 0
-73 -72 491 0
75 74 214 0
75 -74 -214 0
-75 74 -214 0
-75 -74 214 0
76 74 275 0
76 -74 -275 0
-76 74 -275 0
-76 -74 275 0
77 74 305 0
77 -74 -305 0
-77 74 -305 0
-77 -74 305 0
78 74 372 0
78 -74 -372 0
-78 74 -372 0
-78 -74 372 0
79 74 433 0
79 -74 -433 0
-79 74 -433 0
-79 -74 433 0
80 74 457 0
80 -74 -457 0
-80 74 -457 0
-80 -74 457 0
81 74 461 0
81 -74 -461 0
-81 74 -461 0
-81 -74 461 0
82 74 463 0
82 -74 -463 0
-82 74 -463 0
-82 -74 463 0
83 74 467 0
83 -74 -467 0
-83 74 -467 0
-83 -74 467 0
85 84 175 0
85 -84 -175 0
-85 84 -175 0
-85 -84 175 0
86 84 189 0
86 -84 -189 0
-86 84 -189 0
-86 -84 189 0
87 84 291 0
87 -84 -291 0
-87 84 -291 0
-87 -84 291 0
88 84 433 0
88 -84 -433 0
-88 84 -433 0
-88 -84 433 0
89 84 470 0
89 -84 -470 0
-89 84 -470 0
-89 -84 470 0
91 90 317 0
91 -90 -317 0
-91 90 -317 0
-91 -90 317 0
92 90 407 0
92 -90 -407 0
-92 90 -407 0
-92 -90 407 0
93 90 493 0
93 -90 -493 0
-93 90 -493 0
-93 -90 493 0
95 94 143 0
95 -94 -143 0
-95 94 -143 0
-95 -94 143 0
96 94 214 0
96 -94 -214 0
-96 94 -214 0
-96 -94 214 0
97 94 279 0
97 -94 -279 0
-97 94 -279 0
-97 -94 279 0
98 94 337 0
98 -94 -337 0
-98 94 -337 0
-98 -94 337 0
100 99 326 0
100 -99 -326 0
-100 99 -326 0
-100 -99 326 0
101 99 383 0
101 -99 -383 0
-101 99 -383 0
-101 -99 383 0
102 99 436 0
102 -99 -436 0
-102 99 -436 0
-102 -99 436 0
103 99 457 0
103 -99 -457 0
-103 99 -457 0
-103 -99 457 0
105 104 166 0
105 -104 -166 0
-105 104 -166 0
-105 -104 166 0
106 104 383 0
106 -104 -383 0
-106 104 -383 0
-106 -104 383 0
107 104 405 0
107 -104 -405 0
-107 104 -405 0
-107 -104 405 0
108 104 446 0
108 -104 -446 0
-108 104 -446 0
-108 -104 446 0
110 109 245 0
110 -109 -245 0
-110 109 -245 0
-110 -109 245 0
111 109 336 0
111 -109 -336 0
-111 109 -336 0
-111 -109 336 0
113 112 207 0
113 -112 -207 0
-113 112 -207 0
-113 -112 207 0
114 112 294 0
114 -112 -294 0
-114 112 -294 0
-114 -112 294 0
115 112 483 0
115 -112 -483 0
-115 112 -483 0
-115 -112 483 0
117 116 152 0
117 -116 -152 0
-117 116 -152 0
-117 -116 152 0
118 116 175 0
118 -116 -175 0
-118 116 -175 0
-118 -116 175 0
119 116 365 0
119 -116 -365 0
-119 116 -365 0
-119 -116 365 0
121 120 301 0
121 -120 -301 0
-121 120 -301 0
-121 -120 301 0
122 120 399 0
122 -120 -399 0
-122 120 -399 0
-122 -120 399 0
123 120 466 0
123 -120 -466 0
-123 120 -466 0
-123 -120 466 0
124 120 485 0
124 -120 -485 0
-124 120 -485 0
-124 -120 485 0
126 125 164 0
126 -125 -164 0
-126 125 -164 0
-126 -125 164 0
127 125 288 0
127 -125 -288 0
-127 125 -288 0
-127 -125 288 0
128 125 381 0
128 -125 -381 0
-128 125 -381 0
-128 -125 381 0
129 125 388 0
129 -125 -388 0
-129 125 -388 0
-129 -125 388 0
130 125 392 0
130 -125 -392 0
-130 125 -392 0
-130 -125 392 0
131 125 450 0
131 -125 -450 0
-131 125 -450 0
-131 -125 450 0
132 125 499 0
132 -125 -499 0
-132 125 -499 0
-132 -125 499 0
134 133 494 0
134 -133 -494 0
-134 133 -494 0
-134 -133 494 0
136 135 250 0
136 -135 -250 0
-136 135 -250 0
-136 -135 250 0
138 137 478 0
138 -137 -478 0
-138 137 -478 0
-138 -137 478 0
140 139 378 0
140 -139 -378 0
-140 139 -378 0
-140 -139 378 0
141 139 395 0
141 -139 -395 0
-141 139 -395 0
-141 -139 395 0
142 139 484 0
142 -139 -484 0
-142 139 -484 0
-142 -139 484 0
144 143 227 0
144 -143 -227 0
-144 143 -227 0
-144 -143 227 0
145 143 291 0
145 -143 -291 0
-145 143 -291 0
-145 -143 291 0
146 143 296 0
146 -143 -296 0
-146 143 -296 0
-146 -143 296 0
147 143 347 0
147 -143 -347 0
-147 143 -347 0
-147 -143 347 0
149 148 162 0
149 -148 -162 0
-149 148 -162 0
-149 -148 162 0
150 148 337 0
150 -148 -337 0
-150 148 -337 0
-150 -148 337 0
151 148 496 0
151 -148 -496 0
-151 148 -496 0
-151 -148 496 0
153 152 264 0
153 -152 -264 0
-153 152 -264 0
-153 -152 264 0
154 152 270 0
154 -152 -270 0
-154 152 -270 0
-154 -152 270 0
155 152 287 0
155 -152 -287 0
-155 152 -287 0
-155 -152 287 0
156 152 419 0
156 -152 -419 0
-156 152 -419 0
-156 -152 419 0
157 152 436 0
157 -152 -436 0
-157 152 -436 0
-157 -152 436 0
158 152 452 0
158 -152 -452 0
-158 152 -452 0
-158 -152 452 0
160 159 270 0
160 -159 -270 0
-160 159 -270 0
-160 -159 270 0
161 159 409 0
161 -159 -409 0
-161 159 -409 0
-161 -159 409 0
163 162 403 0
163 -162 -403 0
-163 162 -403 0
-163 -162 403 0
165 164 196 0
165 -164 -196 0
-165 164 -196 0
-165 -164 196 0
167 166 245 0
167 -166 -245 0
-167 166 -245 0
-167 -166 245 0
168 166 300 0
168 -166 -300 0
-168 166 -300 0
-168 -166 300 0
169 166 442 0
169 -166 -442 0
-169 166 -442 0
-169 -166 442 0
170 166 500 0
170 -166 -500 0
-170 166 -500 0
-170 -166 500 0
172 171 403 0
172 -171 -403 0
-172 171 -403 0
-172 -171 403 0
173 171 481 0
173 -171 -481 0
-173 171 -481 0
-173 -171 481 0
174 171 498 0
174 -171 -498 0
-174 171 -498 0
-174 -171 498 0
176 175 263 0
176 -175 -263 0
-176 175 -263 0
-176 -175 263 0
177 175 288 0
177 -175 -288 0
-177 175 -288 0
-177 -175 288 0
178 175 347 0
178 -175 -347 0
-178 175 -347 0
-178 -175 347 0
179 175 489 0
179 -175 -489 0
-179 175 -489 0
-179 -175 489 0
181 180 227 0
181 -180 -227 0
-181 180 -227 0
-181 -180 227 0
182 180 375 0
182 -180 -375 0
-182 180 -375 0
-182 -180 375 0
183 180 426 0
183 -180 -426 0
-183 180 -426 0
-183 -180 426 0
185 184 375 0
185 -184 -375 0
-185 184 -375 0
-185 -184 375 0
186 184 457 0
186 -184 -457 0
-186 184 -457 0
-186 -184 457 0
187 184 476 0
187 -184 -476 0
-187 184 -476 0
-187 -184 476 0
188 184 502 0
188 -184 -502 0
-188 184 -502 0
-188 -184 502 0
190 189 210 0
190 -189 -210 0
-190 189 -210 0
-190 -189 210 0
191 189 227 0
191 -189 -227 0
-191 189 -227 0
-191 -189 227 0
192 189 243 0
192 -189 -243 0
-192 189 -243 0
-192 -189 243 0
193 189 311 0
193 -189 -311 0
-193 189 -311 0
-193 -189 311 0
194 189 388 0
194 -189 -388 0
-194 189 -388 0
-194 -189 388 0
195 189 499 0
195 -189 -499 0
-195 189 -499 0
-195 -189 499 0
197 196 284 0
197 -196 -284 0
-197 196 -284 0
-197 -196 284 0
198 196 349 0
198 -196 -349 0
-198 196 -349 0
-198 -196 349 0
199 196 392 0
199 -196 -392 0
-199 196 -392 0
-199 -196 392 0
200 196 463 0
200 -196 -463 0
-200 196 -463 0
-200 -196 463 0
201 196 489 0
201 -196 -489 0
-201 196 -489 0
-201 -196 489 0
203 202 405 0
203 -202 -405 0
-203 202 -405 0
-203 -202 405 0
204 202 452 0
204 -202 -452 0
-204 202 -452 0
-204 -202 452 0
205 202 478 0
205 -202 -478 0
-205 202 -478 0
-205 -202 478 0
206 202 479 0
206 -202 -479 0
-206 202 -479 0
-206 -202 479 0
208 207 258 0
208 -207 -258 0
-208 207 -258 0
-208 -207 258 0
209 207 433 0
209 -207 -433 0
-209 207 -433 0
-209 -207 433 0
211 210 405 0
211 -210 -405 0
-211 210 -405 0
-211 -210 405 0
212 210 428 0
212 -210 -428 0
-212 210 -428 0
-212 -210 428 0
213 210 481 0
213 -210 -481 0
-213 210 -481 0
-213 -210 481 0
215 214 291 0
215 -214 -291 0
-215 214 -291 0
-215 -214 291 0
216 214 294 0
216 -214 -294 0
-216 214 -294 0
-216 -214 294 0
218 217 446 0
218 -217 -446 0
-218 217 -446 0
-218 -217 446 0
219 217 450 0
219 -217 -450 0
-219 217 -450 0
-219 -217 450 0
220 217 466 0
220 -217 -466 0
-220 217 -466 0
-220 -217 466 0
222 221 364 0
222 -221 -364 0
-222 221 -364 0
-222 -221 364 0
223 221 381 0
223 -221 -381 0
-223 221 -381 0
-223 -221 381 0
224 221 445 0
224 -221 -445 0
-224 221 -445 0
-224 -221 445 0
225 221 476 0
225 -221 -476 0
-225 221 -476 0
-225 -221 476 0
226 221 493 0
226 -221 -493 0
-226 221 -493 0
-226 -221 493 0
229 228 381 0
229 -228 -381 0
-229 228 -381 0
-229 -228 381 0
230 228 481 0
230 -228 -481 0
-230 228 -481 0
-230 -228 481 0
232 231 237 0
232 -231 -237 0
-232 231 -237 0
-232 -231 237 0
233 231 258 0
233 -231 -258 0
-233 231 -258 0
-233 -231 258 0
234 231 313 0
234 -231 -313 0
-234 231 -313 0
-234 -231 313 0
235 231 388 0
235 -231 -388 0
-235 231 -388 0
-235 -231 388 0
236 231 494 0
236 -231 -494 0
-236 231 -494 0
-236 -231 494 0
238 237 294 0
238 -237 -294 0
-238 237 -294 0
-238 -237 294 0
239 237 300 0
239 -237 -300 0
-239 237 -300 0
-239 -237 300 0
240 237 363 0
240 -237 -363 0
-240 237 -363 0
-240 -237 363 0
241 237 419 0
241 -237 -419 0
-241 237 -419 0
-241 -237 419 0
242 237 440 0
242 -237 -440 0
-242 237 -440 0
-242 -237 440 0
244 243 388 0
244 -243 -388 0
-244 243 -388 0
-244 -243 388 0
246 245 321 0
246 -245 -321 0
-246 245 -321 0
-246 -245 321 0
247 245 365 0
247 -245 -365 0
-247 245 -365 0
-247 -245 365 0
248 245 464 0
248 -245 -464 0
-248 245 -464 0
-248 -245 464 0
249 245 497 0
249 -245 -497 0
-249 245 -497 0
-249 -245 497 0
251 250 287 0
251 -250 -287 0
-251 250 -287 0
-251 -250 287 0
252 250 360 0
252 -250 -360 0
-252 250 -360 0
-252 -250 360 0
253 250 403 0
253 -250 -403 0
-253 250 -403 0
-253 -250 403 0
254 250 415 0
254 -250 -415 0
-254 250 -415 0
-254 -250 415 0
255 250 455 0
255 -250 -455 0
-255 250 -455 0
-255 -250 455 0
257 256 428 0
257 -256 -428 0
-257 256 -428 0
-257 -256 428 0
259 258 481 0
259 -258 -481 0
-259 258 -481 0
-259 -258 481 0
261 260 349 0
261 -260 -349 0
-261 260 -349 0
-261 -260 349 0
262 260 485 0
262 -260 -485 0
-262 260 -485 0
-262 -260 485 0
265 264 405 0
265 -264 -405 0
-265 264 -405 0
-265 -264 405 0
266 264 495 0
266 -264 -495 0
-266 264 -495 0
-266 -264 495 0
268 267 275 0
268 -267 -275 0
-268 267 -275 0
-268 -267 275 0
269 267 445 0
269 -267 -445 0
-269 267 -445 0
-269 -267 445 0
271 270 323 0
271 -270 -323 0
-271 270 -323 0
-271 -270 323 0
272 270 420 0
272 -270 -420 0
-272 270 -420 0
-272 -270 420 0
273 270 459 0
273 -270 -459 0
-273 270 -459 0
-273 -270 459 0
274 270 467 0
274 -270 -467 0
-274 270 -467 0
-274 -270 467 0
276 275 475 0
276 -275 -475 0
-276 275 -475 0
-276 -275 475 0
277 275 478 0
277 -275 -478 0
-277 275 -478 0
-277 -275 478 0
278 275 493 0
278 -275 -493 0
-278 275 -493 0
-278 -275 493 0
280 279 329 0
280 -279 -329 0
-280 279 -329 0
-280 -279 329 0
281 279 365 0
281 -279 -365 0
-281 279 -365 0
-281 -279 365 0
282 279 430 0
282 -279 -430 0
-282 279 -430 0
-282 -279 430 0
283 279 438 0
283 -279 -438 0
-283 279 -438 0
-283 -279 438 0
285 284 300 0
285 -284 -300 0
-285 284 -300 0
-285 -284 300 0
286 284 348 0
286 -284 -348 0
-286 284 -348 0
-286 -284 348 0
290 289 471 0
290 -289 -471 0
-290 289 -471 0
-290 -289 471 0
292 291 314 0
292 -291 -314 0
-292 291 -314 0
-292 -291 314 0
293 291 476 0
293 -291 -476 0
-293 291 -476 0
-293 -291 476 0
295 294 342 0
295 -294 -342 0
-295 294 -342 0
-295 -294 342 0
297 296 323 0
297 -296 -323 0
-297 296 -323 0
-297 -296 323 0
298 296 353 0
298 -296 -353 0
-298 296 -353 0
-298 -296 353 0
299 296 375 0
299 -296 -375 0
-299 296 -375 0
-299 -296 375 0
302 301 351 0
302 -301 -351 0
-302 301 -351 0
-302 -301 351 0
303 301 405 0
303 -301 -405 0
-303 301 -405 0
-303 -301 405 0
304 301 428 0
304 -301 -428 0
-304 301 -428 0
-304 -301 428 0
306 305 356 0
306 -305 -356 0
-306 305 -356 0
-306 -305 356 0
307 305 383 0
307 -305 -383 0
-307 305 -383 0
-307 -305 383 0
308 305 433 0
308 -305 -433 0
-308 305 -433 0
-308 -305 433 0
310 309 421 0
310 -309 -421 0
-310 309 -421 0
-310 -309 421 0
312 311 364 0
312 -311 -364 0
-312 311 -364 0
-312 -311 364 0
315 314 372 0
315 -314 -372 0
-315 314 -372 0
-315 -314 372 0
316 314 479 0
316 -314 -479 0
-316 314 -479 0
-316 -314 479 0
318 317 363 0
318 -317 -363 0
-318 317 -363 0
-318 -317 363 0
319 317 438 0
319 -317 -438 0
-319 317 -438 0
-319 -317 438 0
320 317 472 0
320 -317 -472 0
-320 317 -472 0
-320 -317 472 0
322 321 485 0
322 -321 -485 0
-322 321 -485 0
-322 -321 485 0
324 323 401 0
324 -323 -401 0
-324 323 -401 0
-324 -323 401 0
325 323 461 0
325 -323 -461 0
-325 323 -461 0
-325 -323 461 0
327 326 463 0
327 -326 -463 0
-327 326 -463 0
-327 -326 463 0
328 326 496 0
328 -326 -496 0
-328 326 -496 0
-328 -326 496 0
330 329 374 0
330 -329 -374 0
-330 329 -374 0
-330 -329 374 0
331 329 430 0
331 -329 -430 0
-331 329 -430 0
-331 -329 430 0
332 329 464 0
332 -329 -464 0
-332 329 -464 0
-332 -329 464 0
334 333 432 0
334 -333 -432 0
-334 333 -432 0
-334 -333 432 0
335 333 459 0
335 -333 -459 0
-335 333 -459 0
-335 -333 459 0
338 337 399 0
338 -337 -399 0
-338 337 -399 0
-338 -337 399 0
339 337 409 0
339 -337 -409 0
-339 337 -409 0
-339 -337 409 0
340 337 466 0
340 -337 -466 0
-340 337 -466 0
-340 -337 466 0
341 337 497 0
341 -337 -497 0
-341 337 -497 0
-341 -337 497 0
343 342 395 0
343 -342 -395 0
-343 342 -395 0
-343 -342 395 0
344 342 445 0
344 -342 -445 0
-344 342 -445 0
-344 -342 445 0
345 342 501 0
345 -342 -501 0
-345 342 -501 0
-345 -342 501 0
346 342 502 0
346 -342 -502 0
-346 342 -502 0
-346 -342 502 0
350 349 432 0
350 -349 -432 0
-350 349 -432 0
-350 -349 432 0
352 351 448 0
352 -351 -448 0
-352 351 -448 0
-352 -351 448 0
354 353 412 0
354 -353 -412 0
-354 353 -412 0
-354 -353 412 0
355 353 458 0
355 -353 -458 0
-355 353 -458 0
-355 -353 458 0
357 356 392 0
357 -356 -392 0
-357 356 -392 0
-357 -356 392 0
358 356 433 0
358 -356 -433 0
-358 356 -433 0
-358 -356 433 0
359 356 458 0
359 -356 -458 0
-359 356 -458 0
-359 -356 458 0
361 360 367 0
361 -360 -367 0
-361 360 -367 0
-361 -360 367 0
362 360 378 0
362 -360 -378 0
-362 360 -378 0
-362 -360 378 0
366 365 428 0
366 -365 -428 0
-366 365 -428 0
-366 -365 428 0
368 367 395 0
368 -367 -395 0
-368 367 -395 0
-368 -367 395 0
369 367 440 0
369 -367 -440 0
-369 367 -440 0
-369 -367 440 0
370 367 450 0
370 -367 -450 0
-370 367 -450 0
-370 -367 450 0
371 367 461 0
371 -367 -461 0
-371 367 -461 0
-371 -367 461 0
373 372 496 0
373 -372 -496 0
-373 372 -496 0
-373 -372 496 0
376 375 487 0
376 -375 -487 0
-376 375 -487 0
-376 -375 487 0
377 375 500 0
377 -375 -500 0
-377 375 -500 0
-377 -375 500 0
379 378 446 0
379 -378 -446 0
-379 378 -446 0
-379 -378 446 0
380 378 491 0
380 -378 -491 0
-380 378 -491 0
-380 -378 491 0
382 381 492 0
382 -381 -492 0
-382 381 -492 0
-382 -381 492 0
384 383 405 0
384 -383 -405 0
-384 383 -405 0
-384 -383 405 0
385 383 420 0
385 -383 -420 0
-385 383 -420 0
-385 -383 420 0
386 383 448 0
386 -383 -448 0
-386 383 -448 0
-386 -383 448 0
387 383 450 0
387 -383 -450 0
-387 383 -450 0
-387 -383 450 0
389 388 401 0
389 -388 -401 0
-389 388 -401 0
-389 -388 401 0
390 388 448 0
390 -388 -448 0
-390 388 -448 0
-390 -388 448 0
391 388 472 0
391 -388 -472 0
-391 388 -472 0
-391 -388 472 0
393 392 448 0
393 -392 -448 0
-393 392 -448 0
-393 -392 448 0
394 392 466 0
394 -392 -466 0
-394 392 -466 0
-394 -392 466 0
396 395 421 0
396 -395 -421 0
-396 395 -421 0
-396 -395 421 0
397 395 464 0
397 -395 -464 0
-397 395 -464 0
-397 -395 464 0
398 395 483 0
398 -395 -483 0
-398 395 -483 0
-398 -395 483 0
400 399 476 0
400 -399 -476 0
-400 399 -476 0
-400 -399 476 0
402 401 426 0
402 -401 -426 0
-402 401 -426 0
-402 -401 426 0
404 403 412 0
404 -403 -412 0
-404 403 -412 0
-404 -403 412 0
406 405 484 0
406 -405 -484 0
-406 405 -484 0
-406 -405 484 0
408 407 467 0
408 -407 -467 0
-408 407 -467 0
-408 -407 467 0
410 409 448 0
410 -409 -448 0
-410 409 -448 0
-410 -409 448 0
411 409 497 0
411 -409 -497 0
-411 409 -497 0
-411 -409 497 0
413 412 440 0
413 -412 -440 0
-413 412 -440 0
-413 -412 440 0
414 412 445 0
414 -412 -445 0
-414 412 -445 0
-414 -412 445 0
416 415 448 0
416 -415 -448 0
-416 415 -448 0
-416 -415 448 0
417 415 450 0
417 -415 -450 0
-417 415 -450 0
-417 -415 450 0
418 415 487 0
418 -415 -487 0
-418 415 -487 0
-418 -415 487 0
422 421 438 0
422 -421 -438 0
-422 421 -438 0
-422 -421 438 0
423 421 440 0
423 -421 -440 0
-423 421 -440 0
-423 -421 440 0
424 421 471 0
424 -421 -471 0
-424 421 -471 0
-424 -421 471 0
425 421 501 0
425 -421 -501 0
-425 421 -501 0
-425 -421 501 0
427 426 458 0
427 -426 -458 0
-427 426 -458 0
-427 -426 458 0
429 428 502 0
429 -428 -502 0
-429 428 -502 0
-429 -428 502 0
431 430 484 0
431 -430 -484 0
-431 430 -484 0
-431 -430 484 0
434 433 450 0
434 -433 -450 0
-434 433 -450 0
-434 -433 450 0
435 433 459 0
435 -433 -459 0
-435 433 -459 0
-435 -433 459 0
437 436 450 0
437 -436 -450 0
-437 436 -450 0
-437 -436 450 0
439 438 494 0
439 -438 -494 0
-439 438 -494 0
-439 -438 494 0
441 440 464 0
441 -440 -464 0
-441 440 -464 0
-441 -440 464 0
443 442 455 0
443 -442 -455 0
-443 442 -455 0
-443 -442 455 0
444 442 476 0
444 -442 -476 0
-444 442 -476 0
-444 -442 476 0
447 446 475 0
447 -446 -475 0
-447 446 -475 0
-447 -446 475 0
449 448 487 0
449 -448 -487 0
-449 448 -487 0
-449 -448 487 0
451 450 465 0
451 -450 -465 0
-451 450 -465 0
-451 -450 465 0
453 452 485 0
453 -452 -485 0
-453 452 -485 0
-453 -452 485 0
454 452 500 0
454 -452 -500 0
-454 452 -500 0
-454 -452 500 0
456 455 491 0
456 -455 -491 0
-456 455 -491 0
-456 -455 491 0
460 459 485 0
460 -459 -485 0
-460 459 -485 0
-460 -459 485 0
462 461 498 0
462 -461 -498 0
-462 461 -498 0
-462 -461 498 0
468 467 471 0
468 -467 -471 0
-468 467 -471 0
-468 -467 471 0
473 472 483 0
473 -472 -483 0
-473 472 -483 0
-473 -472 483 0
474 472 494 0
474 -472 -494 0
-474 472 -494 0
-474 -472 494 0
477 476 484 0
477 -476 -484 0
-477 476 -484 0
-477 -476 484 0
480 479 485 0
480 -479 -485 0
-480 479 -485 0
-480 -479 485 0
482 481 494 0
482 -481 -494 0
-482 481 -494 0
-482 -481 494 0
486 485 497 0
486 -485 -497 0
-486 485 -497 0
-486 -485 497 0
488 487 499 0
488 -487 -499 0
-488 487 -499 0
-488 -487 499 0
490 489 500 0
490 -489 -500 0
-490 489 -500 0
-490 -489 500 0
